c This is QMaxSAT 2017 based on 14.07
c This is Glucose 3.0
c This is MiniSat 2.2.0
c WARNING: for repeatability, setting FPU to use double precision
c card = mrwto, comp = 0, pmodel = 0, narr = 6, mct = 52, verb = 0
cr firstCPXsol 0 0 0
c top = 1525567
c |  Number of variables:    146274                                           |
c |  Number of clauses:      164404224                                        |
c |  Weight of hard clauses: 1525567                                          |
c |  Number of soft clauses: 15912                                            |
c |  Number of unit soft clauses: 15912                                       |
c |  Maximum Cardinality (by unit): 9153396      (9153396     )               |
c last restart ## conflicts  :  40 9900 
o 19870 | cpuTime 15.597 s
c Sum of weights = 1525566
c A number of soft clauses remained = 2652
c MRWTO encoding for Pseudo-Boolean Constraints
c sizeMax=19870
c No.0 Divisor=12	generated by pow1
c No.1 Divisor=12	generated by pow1
c No.2 Divisor=12	generated by pow1
c No.3 Divisor=12	generated by pow1
c p0= 12	p1= 12	p2= 12	p3= 12	
c number of digits = 5
c linkingVar[0].size = 12, linkingVar[1].size = 12, linkingVar[2].size = 12, linkingVar[3].size = 12, linkingVar[4].size = 1, 
c Pseudo-Boolean Constraints: 80521 variables and 846850 clauses
c Sum of weights = 1525566
c A number of soft clauses remained = 2652
c MRWTO encoding for Pseudo-Boolean Constraints
c sizeMax=19870
c No.0 Divisor=12	generated by pow1
c No.1 Divisor=12	generated by pow1
c No.2 Divisor=12	generated by pow1
c No.3 Divisor=12	generated by pow1
c p0= 12	p1= 12	p2= 12	p3= 12	
c number of digits = 5
c linkingVar[0].size = 12, linkingVar[1].size = 12, linkingVar[2].size = 12, linkingVar[3].size = 12, linkingVar[4].size = 1, 
c Pseudo-Boolean Constraints: 80521 variables and 846850 clauses
c Sum of weights = 1525566
c A number of soft clauses remained = 2652
c MRWTO encoding for Pseudo-Boolean Constraints
c sizeMax=19870
c No.0 Divisor=12	generated by pow1
c No.1 Divisor=12	generated by pow1
c No.2 Divisor=12	generated by pow1
c No.3 Divisor=12	generated by pow1
c p0= 12	p1= 12	p2= 12	p3= 12	
c number of digits = 5
c linkingVar[0].size = 12, linkingVar[1].size = 12, linkingVar[2].size = 12, linkingVar[3].size = 12, linkingVar[4].size = 1, 
c Pseudo-Boolean Constraints: 80521 variables and 846850 clauses
c Sum of weights = 1525566
c A number of soft clauses remained = 2652
c MRWTO encoding for Pseudo-Boolean Constraints
c sizeMax=19870
c No.0 Divisor=12	generated by pow1
c No.1 Divisor=12	generated by pow1
c No.2 Divisor=12	generated by pow1
c No.3 Divisor=12	generated by pow1
c p0= 12	p1= 12	p2= 12	p3= 12	
c number of digits = 5
c linkingVar[0].size = 12, linkingVar[1].size = 12, linkingVar[2].size = 12, linkingVar[3].size = 12, linkingVar[4].size = 1, 
c Pseudo-Boolean Constraints: 80521 variables and 846850 clauses
c Sum of weights = 1525566
c A number of soft clauses remained = 2652
c MRWTO encoding for Pseudo-Boolean Constraints
c sizeMax=19870
c No.0 Divisor=12	generated by pow1
c No.1 Divisor=12	generated by pow1
c No.2 Divisor=12	generated by pow1
c No.3 Divisor=12	generated by pow1
c p0= 12	p1= 12	p2= 12	p3= 12	
c number of digits = 5
c linkingVar[0].size = 12, linkingVar[1].size = 12, linkingVar[2].size = 12, linkingVar[3].size = 12, linkingVar[4].size = 1, 
c Pseudo-Boolean Constraints: 80521 variables and 846850 clauses
c Sum of weights = 1525566
c A number of soft clauses remained = 2652
c MRWTO encoding for Pseudo-Boolean Constraints
c sizeMax=19870
c No.0 Divisor=12	generated by pow1
c No.1 Divisor=12	generated by pow1
c No.2 Divisor=12	generated by pow1
c No.3 Divisor=12	generated by pow1
c p0= 12	p1= 12	p2= 12	p3= 12	
c number of digits = 5
c linkingVar[0].size = 12, linkingVar[1].size = 12, linkingVar[2].size = 12, linkingVar[3].size = 12, linkingVar[4].size = 1, 
c Pseudo-Boolean Constraints: 80521 variables and 846850 clauses
c last restart ## conflicts  :  156 57854 
o 9750 | cpuTime 3546.88 s
c last restart ## conflicts  :  150 55453 
o 6879 | cpuTime 3548.21 s
s UNKNOWN
c Search is stopped by a limit (maybe time-limit)
cr positiVarArr: [ | 15@1(1->15) | 469@1(10->1) | 644@1(13->20) | 777@1(15->49) | 998@1(20->10) | 2509@1(49->13) | 2726@2(1->22) | 2777@2(2->21) | 3018@2(7->2) | 3501@2(16->17) | 3581@2(17->45) | 3611@2(18->23) | 3666@2(19->26) | 3762@2(21->18) | 3820@2(22->24) | 3888@2(23->40) | 3934@2(24->34) | 4005@2(26->1) | 4384@2(33->16) | 4427@2(34->7) | 4765@2(40->33) | 5011@2(45->19) | 5412@3(1->4) | 5611@3(4->47) | 7801@3(47->1) | 8164@4(1->52) | 9361@4(25->1) | 9564@4(28->48) | 9603@4(29->35) | 9774@4(32->50) | 9905@4(35->25) | 10013@4(37->29) | 10347@4(43->51) | 10599@4(48->43) | 10697@4(50->37) | 10744@4(51->32) | 10792@4(52->28) | 10852@5(1->36) | 11068@5(5->44) | 11210@5(8->30) | 11237@5(9->5) | 12177@5(27->9) | 12355@5(30->31) | 12403@5(31->27) | 12682@5(36->46) | 12800@5(39->8) | 13053@5(44->1) | 13195@5(46->39) | 13562@6(1->42) | 13662@6(3->38) | 13794@6(6->14) | 14052@6(11->12) | 14095@6(12->3) | 14207@6(14->11) | 15485@6(38->41) | 15601@6(41->1) | 15658@6(42->6) | ]
cr the 1-th chain: [ 1->15->49->13->20->10->1 ] (#non-depot=5) {#cumul.=6}
cr the 2-th chain: [ 1->22->24->34->7->2->21->18->23->40->33->16->17->45->19->26->1 ] (#non-depot=15) {#cumul.=21}
cr the 3-th chain: [ 1->4->47->1 ] (#non-depot=2) {#cumul.=23}
cr the 4-th chain: [ 1->52->28->48->43->51->32->50->37->29->35->25->1 ] (#non-depot=11) {#cumul.=34}
cr the 5-th chain: [ 1->36->46->39->8->30->31->27->9->5->44->1 ] (#non-depot=10) {#cumul.=44}
cr the 6-th chain: [ 1->42->6->14->11->12->3->38->41->1 ] (#non-depot=8) {#cumul.=52}
c Latest Answer = 0 by 3 loops
c restarts              : 20696
c conflicts             : 6103222        (1708 /sec)
c decisions             : 123247259      (0.00 % random) (34494 /sec)
c propagations          : 9419008276     (2636184 /sec)
c conflict literals     : 4704703439     (3.08 % deleted)
c Memory used           : 14330.00 MB
c CPU time              : 3572.97 s
